(declare-const in7x8 Int)
(declare-const in7x9 Int)
(declare-const in7x6 Int)
(declare-const in7x0 Int)
(declare-const in7x1 Int)
(declare-const in7x4 Int)
(declare-const in7x5 Int)
(declare-const in7x2 Int)
(declare-const in7x3 Int)
(declare-const in12x26 Int)
(declare-const in12x24 Int)
(declare-const in12x25 Int)
(declare-const in12x22 Int)
(declare-const in12x23 Int)
(declare-const in12x20 Int)
(declare-const in12x21 Int)
(declare-const in1x18 Int)
(declare-const in1x17 Int)
(declare-const in1x16 Int)
(declare-const in1x15 Int)
(declare-const in1x19 Int)
(declare-const in23x24 Int)
(declare-const in23x25 Int)
(declare-const in23x26 Int)
(declare-const in23x20 Int)
(declare-const in23x21 Int)
(declare-const in23x22 Int)
(declare-const in12x19 Int)
(declare-const in12x17 Int)
(declare-const in12x18 Int)
(declare-const in12x15 Int)
(declare-const in1x10 Int)
(declare-const in12x16 Int)
(declare-const in12x13 Int)
(declare-const in12x14 Int)
(declare-const in1x14 Int)
(declare-const in12x11 Int)
(declare-const in1x13 Int)
(declare-const in1x12 Int)
(declare-const in12x10 Int)
(declare-const in1x11 Int)
(declare-const in0x16 Int)
(declare-const in0x17 Int)
(declare-const in0x14 Int)
(declare-const in0x15 Int)
(declare-const in23x17 Int)
(declare-const in23x18 Int)
(declare-const in23x19 Int)
(declare-const in0x18 Int)
(declare-const in0x19 Int)
(declare-const in23x13 Int)
(declare-const in8x7 Int)
(declare-const in23x14 Int)
(declare-const in23x15 Int)
(declare-const in8x5 Int)
(declare-const in23x16 Int)
(declare-const in8x6 Int)
(declare-const in23x10 Int)
(declare-const in23x11 Int)
(declare-const in8x9 Int)
(declare-const in23x12 Int)
(declare-const in8x0 Int)
(declare-const in8x3 Int)
(declare-const in8x4 Int)
(declare-const in8x1 Int)
(declare-const in8x2 Int)
(declare-const in0x12 Int)
(declare-const in0x13 Int)
(declare-const in0x10 Int)
(declare-const in0x11 Int)
(declare-const in0x25 Int)
(declare-const in0x26 Int)
(declare-const in11x24 Int)
(declare-const in11x23 Int)
(declare-const in0x20 Int)
(declare-const in11x26 Int)
(declare-const in11x25 Int)
(declare-const in0x23 Int)
(declare-const in11x20 Int)
(declare-const in0x24 Int)
(declare-const in11x22 Int)
(declare-const in0x21 Int)
(declare-const in0x22 Int)
(declare-const in11x21 Int)
(declare-const in2x19 Int)
(declare-const in2x18 Int)
(declare-const in2x17 Int)
(declare-const in2x16 Int)
(declare-const in22x23 Int)
(declare-const in9x6 Int)
(declare-const in22x24 Int)
(declare-const in9x7 Int)
(declare-const in22x25 Int)
(declare-const in9x4 Int)
(declare-const in22x26 Int)
(declare-const in9x5 Int)
(declare-const in22x20 Int)
(declare-const in22x21 Int)
(declare-const in9x8 Int)
(declare-const in18x2 Int)
(declare-const in11x17 Int)
(declare-const in9x2 Int)
(declare-const in18x3 Int)
(declare-const in11x16 Int)
(declare-const in9x3 Int)
(declare-const in11x19 Int)
(declare-const in18x0 Int)
(declare-const in9x0 Int)
(declare-const in11x18 Int)
(declare-const in18x1 Int)
(declare-const in9x1 Int)
(declare-const in18x6 Int)
(declare-const in11x13 Int)
(declare-const in2x11 Int)
(declare-const in18x7 Int)
(declare-const in11x12 Int)
(declare-const in2x10 Int)
(declare-const in18x4 Int)
(declare-const in11x15 Int)
(declare-const in18x5 Int)
(declare-const in11x14 Int)
(declare-const in2x15 Int)
(declare-const in2x14 Int)
(declare-const in18x8 Int)
(declare-const in2x13 Int)
(declare-const in18x9 Int)
(declare-const in2x12 Int)
(declare-const in11x10 Int)
(declare-const in22x16 Int)
(declare-const in22x17 Int)
(declare-const in22x18 Int)
(declare-const in22x19 Int)
(declare-const in22x12 Int)
(declare-const in22x13 Int)
(declare-const in22x14 Int)
(declare-const in22x15 Int)
(declare-const in22x10 Int)
(declare-const in22x11 Int)
(declare-const in2x22 Int)
(declare-const in2x21 Int)
(declare-const in2x20 Int)
(declare-const in2x26 Int)
(declare-const in2x25 Int)
(declare-const in2x24 Int)
(declare-const in2x23 Int)
(declare-const in1x26 Int)
(declare-const in19x1 Int)
(declare-const in10x26 Int)
(declare-const in19x2 Int)
(declare-const in19x0 Int)
(declare-const in10x23 Int)
(declare-const in1x21 Int)
(declare-const in19x5 Int)
(declare-const in10x22 Int)
(declare-const in1x20 Int)
(declare-const in19x6 Int)
(declare-const in10x25 Int)
(declare-const in19x3 Int)
(declare-const in10x24 Int)
(declare-const in19x4 Int)
(declare-const in1x25 Int)
(declare-const in19x9 Int)
(declare-const in1x24 Int)
(declare-const in1x23 Int)
(declare-const in10x21 Int)
(declare-const in19x7 Int)
(declare-const in1x22 Int)
(declare-const in10x20 Int)
(declare-const in19x8 Int)
(declare-const in21x26 Int)
(declare-const in21x22 Int)
(declare-const in21x23 Int)
(declare-const in21x24 Int)
(declare-const in21x25 Int)
(declare-const in21x20 Int)
(declare-const in10x19 Int)
(declare-const in10x16 Int)
(declare-const in10x15 Int)
(declare-const in10x18 Int)
(declare-const in10x17 Int)
(declare-const in10x12 Int)
(declare-const in10x11 Int)
(declare-const in10x14 Int)
(declare-const in10x13 Int)
(declare-const in15x11 Int)
(declare-const in15x10 Int)
(declare-const in26x25 Int)
(declare-const in26x23 Int)
(declare-const in26x24 Int)
(declare-const in26x21 Int)
(declare-const in26x22 Int)
(declare-const in26x20 Int)
(declare-const in15x19 Int)
(declare-const in15x18 Int)
(declare-const in15x17 Int)
(declare-const in15x16 Int)
(declare-const in15x14 Int)
(declare-const in15x13 Int)
(declare-const in15x12 Int)
(declare-const in26x18 Int)
(declare-const in26x19 Int)
(declare-const in26x16 Int)
(declare-const in26x17 Int)
(declare-const in26x14 Int)
(declare-const in26x15 Int)
(declare-const in26x12 Int)
(declare-const in26x13 Int)
(declare-const in26x10 Int)
(declare-const in9x13 Int)
(declare-const in26x11 Int)
(declare-const in9x14 Int)
(declare-const in9x11 Int)
(declare-const in9x12 Int)
(declare-const in9x10 Int)
(declare-const in9x19 Int)
(declare-const in9x17 Int)
(declare-const in9x18 Int)
(declare-const in9x15 Int)
(declare-const in9x16 Int)
(declare-const in14x21 Int)
(declare-const in14x20 Int)
(declare-const in20x0 Int)
(declare-const in20x3 Int)
(declare-const in20x4 Int)
(declare-const in20x1 Int)
(declare-const in20x2 Int)
(declare-const in8x12 Int)
(declare-const in8x13 Int)
(declare-const in8x10 Int)
(declare-const in8x11 Int)
(declare-const in8x18 Int)
(declare-const in14x26 Int)
(declare-const in8x19 Int)
(declare-const in14x25 Int)
(declare-const in8x16 Int)
(declare-const in14x24 Int)
(declare-const in8x17 Int)
(declare-const in14x23 Int)
(declare-const in8x14 Int)
(declare-const in14x22 Int)
(declare-const in8x15 Int)
(declare-const in14x10 Int)
(declare-const in25x26 Int)
(declare-const in25x23 Int)
(declare-const in25x22 Int)
(declare-const in25x24 Int)
(declare-const in8x23 Int)
(declare-const in20x7 Int)
(declare-const in8x24 Int)
(declare-const in20x8 Int)
(declare-const in25x21 Int)
(declare-const in8x21 Int)
(declare-const in20x5 Int)
(declare-const in25x20 Int)
(declare-const in8x22 Int)
(declare-const in20x6 Int)
(declare-const in8x20 Int)
(declare-const in20x9 Int)
(declare-const in14x19 Int)
(declare-const in14x18 Int)
(declare-const in14x17 Int)
(declare-const in14x16 Int)
(declare-const in14x15 Int)
(declare-const in14x13 Int)
(declare-const in8x25 Int)
(declare-const in14x12 Int)
(declare-const in8x26 Int)
(declare-const in14x11 Int)
(declare-const in25x19 Int)
(declare-const in25x16 Int)
(declare-const in25x15 Int)
(declare-const in25x18 Int)
(declare-const in25x17 Int)
(declare-const in25x12 Int)
(declare-const in25x11 Int)
(declare-const in25x14 Int)
(declare-const in25x13 Int)
(declare-const in25x10 Int)
(declare-const in13x20 Int)
(declare-const in13x25 Int)
(declare-const in13x26 Int)
(declare-const in13x23 Int)
(declare-const in13x24 Int)
(declare-const in13x21 Int)
(declare-const in13x22 Int)
(declare-const in24x26 Int)
(declare-const in24x25 Int)
(declare-const in24x22 Int)
(declare-const in24x21 Int)
(declare-const in24x23 Int)
(declare-const in9x24 Int)
(declare-const in9x25 Int)
(declare-const in24x20 Int)
(declare-const in9x22 Int)
(declare-const in9x23 Int)
(declare-const in9x20 Int)
(declare-const in9x21 Int)
(declare-const in13x18 Int)
(declare-const in13x19 Int)
(declare-const in13x16 Int)
(declare-const in13x17 Int)
(declare-const in13x14 Int)
(declare-const in13x15 Int)
(declare-const in13x12 Int)
(declare-const in9x26 Int)
(declare-const in13x10 Int)
(declare-const in13x11 Int)
(declare-const in24x19 Int)
(declare-const in24x18 Int)
(declare-const in24x15 Int)
(declare-const in24x14 Int)
(declare-const in24x17 Int)
(declare-const in24x16 Int)
(declare-const in24x11 Int)
(declare-const in24x10 Int)
(declare-const in24x13 Int)
(declare-const in24x12 Int)
(declare-const in23x0 Int)
(declare-const in23x1 Int)
(declare-const in12x4 Int)
(declare-const in12x5 Int)
(declare-const in12x2 Int)
(declare-const in6x11 Int)
(declare-const in12x3 Int)
(declare-const in6x10 Int)
(declare-const in12x8 Int)
(declare-const in12x9 Int)
(declare-const in12x6 Int)
(declare-const in12x7 Int)
(declare-const in6x17 Int)
(declare-const in6x16 Int)
(declare-const in6x19 Int)
(declare-const in6x18 Int)
(declare-const in6x13 Int)
(declare-const in6x12 Int)
(declare-const in6x15 Int)
(declare-const in6x14 Int)
(declare-const in17x25 Int)
(declare-const in17x26 Int)
(declare-const in11x0 Int)
(declare-const in11x2 Int)
(declare-const in11x1 Int)
(declare-const in23x4 Int)
(declare-const in6x20 Int)
(declare-const in23x5 Int)
(declare-const in23x2 Int)
(declare-const in6x22 Int)
(declare-const in23x3 Int)
(declare-const in6x21 Int)
(declare-const in23x8 Int)
(declare-const in23x9 Int)
(declare-const in23x6 Int)
(declare-const in23x7 Int)
(declare-const in17x20 Int)
(declare-const in6x24 Int)
(declare-const in17x21 Int)
(declare-const in6x23 Int)
(declare-const in17x22 Int)
(declare-const in6x26 Int)
(declare-const in17x23 Int)
(declare-const in6x25 Int)
(declare-const in17x24 Int)
(declare-const in17x14 Int)
(declare-const in17x15 Int)
(declare-const in17x16 Int)
(declare-const in17x18 Int)
(declare-const in17x19 Int)
(declare-const in24x0 Int)
(declare-const in13x3 Int)
(declare-const in0x7 Int)
(declare-const in13x4 Int)
(declare-const in0x8 Int)
(declare-const in5x20 Int)
(declare-const in13x1 Int)
(declare-const in0x5 Int)
(declare-const in5x21 Int)
(declare-const in13x2 Int)
(declare-const in0x6 Int)
(declare-const in13x7 Int)
(declare-const in13x8 Int)
(declare-const in13x5 Int)
(declare-const in0x9 Int)
(declare-const in13x6 Int)
(declare-const in5x26 Int)
(declare-const in13x9 Int)
(declare-const in5x22 Int)
(declare-const in17x10 Int)
(declare-const in0x3 Int)
(declare-const in5x23 Int)
(declare-const in17x11 Int)
(declare-const in0x4 Int)
(declare-const in5x24 Int)
(declare-const in17x12 Int)
(declare-const in0x1 Int)
(declare-const in5x25 Int)
(declare-const in17x13 Int)
(declare-const in0x2 Int)
(declare-const in12x0 Int)
(declare-const in12x1 Int)
(declare-const in24x3 Int)
(declare-const in24x4 Int)
(declare-const in24x1 Int)
(declare-const in24x2 Int)
(declare-const in24x7 Int)
(declare-const in24x8 Int)
(declare-const in24x5 Int)
(declare-const in24x6 Int)
(declare-const in24x9 Int)
(declare-const in16x24 Int)
(declare-const in16x25 Int)
(declare-const in16x26 Int)
(declare-const in21x2 Int)
(declare-const in21x3 Int)
(declare-const in21x0 Int)
(declare-const in21x1 Int)
(declare-const in7x21 Int)
(declare-const in10x5 Int)
(declare-const in1x6 Int)
(declare-const in7x20 Int)
(declare-const in10x4 Int)
(declare-const in1x7 Int)
(declare-const in7x23 Int)
(declare-const in10x7 Int)
(declare-const in1x4 Int)
(declare-const in7x22 Int)
(declare-const in10x6 Int)
(declare-const in1x5 Int)
(declare-const in10x9 Int)
(declare-const in10x8 Int)
(declare-const in1x8 Int)
(declare-const in1x9 Int)
(declare-const in7x25 Int)
(declare-const in16x20 Int)
(declare-const in1x2 Int)
(declare-const in7x24 Int)
(declare-const in16x21 Int)
(declare-const in1x3 Int)
(declare-const in16x22 Int)
(declare-const in1x0 Int)
(declare-const in7x26 Int)
(declare-const in16x23 Int)
(declare-const in16x13 Int)
(declare-const in16x14 Int)
(declare-const in16x15 Int)
(declare-const in16x17 Int)
(declare-const in16x18 Int)
(declare-const in16x19 Int)
(declare-const in21x6 Int)
(declare-const in21x7 Int)
(declare-const in21x4 Int)
(declare-const in21x5 Int)
(declare-const in21x8 Int)
(declare-const in21x9 Int)
(declare-const in16x10 Int)
(declare-const in16x11 Int)
(declare-const in16x12 Int)
(declare-const in22x1 Int)
(declare-const in22x2 Int)
(declare-const in22x0 Int)
(declare-const in11x4 Int)
(declare-const in2x5 Int)
(declare-const in11x3 Int)
(declare-const in2x6 Int)
(declare-const in11x6 Int)
(declare-const in2x3 Int)
(declare-const in11x5 Int)
(declare-const in2x4 Int)
(declare-const in11x8 Int)
(declare-const in2x9 Int)
(declare-const in11x7 Int)
(declare-const in2x7 Int)
(declare-const in11x9 Int)
(declare-const in2x8 Int)
(declare-const in2x1 Int)
(declare-const in2x0 Int)
(declare-const in15x22 Int)
(declare-const in15x21 Int)
(declare-const in15x20 Int)
(declare-const in10x1 Int)
(declare-const in10x0 Int)
(declare-const in10x3 Int)
(declare-const in10x2 Int)
(declare-const in22x5 Int)
(declare-const in7x10 Int)
(declare-const in22x6 Int)
(declare-const in22x3 Int)
(declare-const in7x12 Int)
(declare-const in22x4 Int)
(declare-const in7x11 Int)
(declare-const in22x9 Int)
(declare-const in22x7 Int)
(declare-const in22x8 Int)
(declare-const in7x18 Int)
(declare-const in7x17 Int)
(declare-const in7x19 Int)
(declare-const in15x26 Int)
(declare-const in7x14 Int)
(declare-const in15x25 Int)
(declare-const in7x13 Int)
(declare-const in15x24 Int)
(declare-const in7x16 Int)
(declare-const in15x23 Int)
(declare-const in7x15 Int)
(declare-const in21x19 Int)
(declare-const in21x15 Int)
(declare-const in21x16 Int)
(declare-const in21x17 Int)
(declare-const in21x18 Int)
(declare-const in21x11 Int)
(declare-const in21x12 Int)
(declare-const in21x13 Int)
(declare-const in21x14 Int)
(declare-const in21x10 Int)
(declare-const in16x0 Int)
(declare-const in3x4 Int)
(declare-const in16x1 Int)
(declare-const in3x5 Int)
(declare-const in3x2 Int)
(declare-const in16x4 Int)
(declare-const in3x8 Int)
(declare-const in16x5 Int)
(declare-const in3x9 Int)
(declare-const in16x2 Int)
(declare-const in3x6 Int)
(declare-const in16x3 Int)
(declare-const in3x7 Int)
(declare-const in3x23 Int)
(declare-const in16x8 Int)
(declare-const in3x22 Int)
(declare-const in16x9 Int)
(declare-const in3x21 Int)
(declare-const in16x6 Int)
(declare-const in3x20 Int)
(declare-const in16x7 Int)
(declare-const in3x0 Int)
(declare-const in3x26 Int)
(declare-const in3x1 Int)
(declare-const in3x25 Int)
(declare-const in3x24 Int)
(declare-const in20x26 Int)
(declare-const in20x25 Int)
(declare-const in4x9 Int)
(declare-const in20x24 Int)
(declare-const in20x23 Int)
(declare-const in20x22 Int)
(declare-const in20x21 Int)
(declare-const in4x3 Int)
(declare-const in17x0 Int)
(declare-const in4x1 Int)
(declare-const in4x2 Int)
(declare-const in17x3 Int)
(declare-const in4x7 Int)
(declare-const in17x4 Int)
(declare-const in4x8 Int)
(declare-const in17x1 Int)
(declare-const in4x5 Int)
(declare-const in17x2 Int)
(declare-const in4x6 Int)
(declare-const in17x7 Int)
(declare-const in17x8 Int)
(declare-const in17x5 Int)
(declare-const in17x6 Int)
(declare-const in4x0 Int)
(declare-const in17x9 Int)
(declare-const in20x17 Int)
(declare-const in20x16 Int)
(declare-const in3x19 Int)
(declare-const in20x15 Int)
(declare-const in3x18 Int)
(declare-const in20x14 Int)
(declare-const in3x17 Int)
(declare-const in20x19 Int)
(declare-const in20x18 Int)
(declare-const in20x13 Int)
(declare-const in20x12 Int)
(declare-const in20x11 Int)
(declare-const in20x10 Int)
(declare-const in19x20 Int)
(declare-const in3x12 Int)
(declare-const in3x11 Int)
(declare-const in19x22 Int)
(declare-const in3x10 Int)
(declare-const in19x21 Int)
(declare-const in19x24 Int)
(declare-const in3x16 Int)
(declare-const in19x23 Int)
(declare-const in3x15 Int)
(declare-const in19x26 Int)
(declare-const in3x14 Int)
(declare-const in19x25 Int)
(declare-const in3x13 Int)
(declare-const in19x17 Int)
(declare-const in19x16 Int)
(declare-const in19x18 Int)
(declare-const in5x8 Int)
(declare-const in5x9 Int)
(declare-const in14x2 Int)
(declare-const in5x2 Int)
(declare-const in14x3 Int)
(declare-const in5x3 Int)
(declare-const in14x0 Int)
(declare-const in5x0 Int)
(declare-const in14x1 Int)
(declare-const in5x1 Int)
(declare-const in14x6 Int)
(declare-const in5x6 Int)
(declare-const in14x7 Int)
(declare-const in5x7 Int)
(declare-const in14x4 Int)
(declare-const in5x4 Int)
(declare-const in14x5 Int)
(declare-const in19x11 Int)
(declare-const in14x8 Int)
(declare-const in19x10 Int)
(declare-const in14x9 Int)
(declare-const in19x13 Int)
(declare-const in19x12 Int)
(declare-const in19x15 Int)
(declare-const in19x14 Int)
(declare-const in5x19 Int)
(declare-const in13x0 Int)
(declare-const in25x2 Int)
(declare-const in25x3 Int)
(declare-const in25x0 Int)
(declare-const in25x1 Int)
(declare-const in5x10 Int)
(declare-const in25x6 Int)
(declare-const in25x7 Int)
(declare-const in25x4 Int)
(declare-const in25x5 Int)
(declare-const in5x15 Int)
(declare-const in5x16 Int)
(declare-const in25x8 Int)
(declare-const in5x17 Int)
(declare-const in25x9 Int)
(declare-const in5x18 Int)
(declare-const in5x11 Int)
(declare-const in5x12 Int)
(declare-const in5x13 Int)
(declare-const in5x14 Int)
(declare-const in18x26 Int)
(declare-const in4x18 Int)
(declare-const in4x19 Int)
(declare-const in6x9 Int)
(declare-const in6x7 Int)
(declare-const in6x8 Int)
(declare-const in15x1 Int)
(declare-const in6x1 Int)
(declare-const in15x2 Int)
(declare-const in6x2 Int)
(declare-const in15x0 Int)
(declare-const in6x0 Int)
(declare-const in15x5 Int)
(declare-const in6x5 Int)
(declare-const in15x6 Int)
(declare-const in15x3 Int)
(declare-const in6x3 Int)
(declare-const in15x4 Int)
(declare-const in6x4 Int)
(declare-const in15x9 Int)
(declare-const in4x14 Int)
(declare-const in4x15 Int)
(declare-const in18x21 Int)
(declare-const in4x16 Int)
(declare-const in15x7 Int)
(declare-const in18x20 Int)
(declare-const in4x17 Int)
(declare-const in15x8 Int)
(declare-const in18x23 Int)
(declare-const in4x10 Int)
(declare-const in18x22 Int)
(declare-const in4x11 Int)
(declare-const in18x25 Int)
(declare-const in4x12 Int)
(declare-const in18x24 Int)
(declare-const in4x13 Int)
(declare-const in18x16 Int)
(declare-const in18x15 Int)
(declare-const in18x17 Int)
(declare-const in18x19 Int)
(declare-const in26x1 Int)
(declare-const in26x2 Int)
(declare-const in26x0 Int)
(declare-const in4x20 Int)
(declare-const in26x5 Int)
(declare-const in26x6 Int)
(declare-const in26x3 Int)
(declare-const in26x4 Int)
(declare-const in26x9 Int)
(declare-const in4x25 Int)
(declare-const in4x26 Int)
(declare-const in26x7 Int)
(declare-const in18x10 Int)
(declare-const in26x8 Int)
(declare-const in4x21 Int)
(declare-const in18x12 Int)
(declare-const in4x22 Int)
(declare-const in18x11 Int)
(declare-const in4x23 Int)
(declare-const in18x14 Int)
(declare-const in4x24 Int)
(declare-const in18x13 Int)

(assert (and (and (and (and (and (and (and (and (and (and (and (and (and (and (and (and (and (and (and (and (and (and (and (and (and (and (and (and (and (and (and (and (and (and (and (and (and (and (and (and (and (and (and (and (and (and (and (and (and (and (and (and (and (and (and (and (and (and (and (and (and (and (and (and (and (and (and (and (and (and (and (and (and (and (and (and (and (and (and (and (and (and (and (and (and (and (and (and (and (and (and (and (and (and (and (and (and (and (and (and (and (and (and (and (and (and (and (and (and (and (and (and (and (and (and (and (and (and (and (and (and (and (and (and (and (and (and (and (and (and (and (and (and (and (and (and (and (and (and (and (and (and (and (and (and (and (and (and (and (and (and (and (and (and (and (and (and (and (and (and (and (and (and (and (and (and (and (and (and (and (and (and (and (and (and (and (and (and (and (and (and (and (and (and (and (and (and (and (and (and (and (and (and (and (and (and (and (and (and (and (and (and (and (and (and (and (and (and (and (and (and (and (and (and (and (and (and (and (and (and (and (and (and (and (and (and (and (and (and (and (and (and (and (and (and (and (and (and (and (and (and (and (and (and (and (and (and (and (and (and (and (and (and (and (and (and (and (and (and (and (and (and (and (and (and (and (and (and (and (and (and (and (and (and (and (and (and (and (and (and (and (and (and (and (and (and (and (and (and (and (and (and (and (and (and (and (and (and (and (and (and (and (and (and (and (and (and (and (and (and (and (and (and (and (and (and (and (and (and (and (and (and (and (and (and (and (and (and (and (and (and (and (and (and (and (and (and (and (and (and (and (and (and (and (and (and (and (and (and (and  ( ==  in1x0 in0x1)  ( ==  in2x0 in0x2))  ( ==  in2x1 in1x2))  ( ==  in3x0 in0x3))  ( ==  in3x1 in1x3))  ( ==  in3x2 in2x3))  ( ==  in4x0 in0x4))  ( ==  in4x1 in1x4))  ( ==  in4x2 in2x4))  ( ==  in4x3 in3x4))  ( ==  in5x0 in0x5))  ( ==  in5x1 in1x5))  ( ==  in5x2 in2x5))  ( ==  in5x3 in3x5))  ( ==  in5x4 in4x5))  ( ==  in6x0 in0x6))  ( ==  in6x1 in1x6))  ( ==  in6x2 in2x6))  ( ==  in6x3 in3x6))  ( ==  in6x4 in4x6))  ( ==  in6x5 in5x6))  ( ==  in7x0 in0x7))  ( ==  in7x1 in1x7))  ( ==  in7x2 in2x7))  ( ==  in7x3 in3x7))  ( ==  in7x4 in4x7))  ( ==  in7x5 in5x7))  ( ==  in7x6 in6x7))  ( ==  in8x0 in0x8))  ( ==  in8x1 in1x8))  ( ==  in8x2 in2x8))  ( ==  in8x3 in3x8))  ( ==  in8x4 in4x8))  ( ==  in8x5 in5x8))  ( ==  in8x6 in6x8))  ( ==  in8x7 in7x8))  ( ==  in9x0 in0x9))  ( ==  in9x1 in1x9))  ( ==  in9x2 in2x9))  ( ==  in9x3 in3x9))  ( ==  in9x4 in4x9))  ( ==  in9x5 in5x9))  ( ==  in9x6 in6x9))  ( ==  in9x7 in7x9))  ( ==  in9x8 in8x9))  ( ==  in10x0 in0x10))  ( ==  in10x1 in1x10))  ( ==  in10x2 in2x10))  ( ==  in10x3 in3x10))  ( ==  in10x4 in4x10))  ( ==  in10x5 in5x10))  ( ==  in10x6 in6x10))  ( ==  in10x7 in7x10))  ( ==  in10x8 in8x10))  ( ==  in10x9 in9x10))  ( ==  in11x0 in0x11))  ( ==  in11x1 in1x11))  ( ==  in11x2 in2x11))  ( ==  in11x3 in3x11))  ( ==  in11x4 in4x11))  ( ==  in11x5 in5x11))  ( ==  in11x6 in6x11))  ( ==  in11x7 in7x11))  ( ==  in11x8 in8x11))  ( ==  in11x9 in9x11))  ( ==  in11x10 in10x11))  ( ==  in12x0 in0x12))  ( ==  in12x1 in1x12))  ( ==  in12x2 in2x12))  ( ==  in12x3 in3x12))  ( ==  in12x4 in4x12))  ( ==  in12x5 in5x12))  ( ==  in12x6 in6x12))  ( ==  in12x7 in7x12))  ( ==  in12x8 in8x12))  ( ==  in12x9 in9x12))  ( ==  in12x10 in10x12))  ( ==  in12x11 in11x12))  ( ==  in13x0 in0x13))  ( ==  in13x1 in1x13))  ( ==  in13x2 in2x13))  ( ==  in13x3 in3x13))  ( ==  in13x4 in4x13))  ( ==  in13x5 in5x13))  ( ==  in13x6 in6x13))  ( ==  in13x7 in7x13))  ( ==  in13x8 in8x13))  ( ==  in13x9 in9x13))  ( ==  in13x10 in10x13))  ( ==  in13x11 in11x13))  ( ==  in13x12 in12x13))  ( ==  in14x0 in0x14))  ( ==  in14x1 in1x14))  ( ==  in14x2 in2x14))  ( ==  in14x3 in3x14))  ( ==  in14x4 in4x14))  ( ==  in14x5 in5x14))  ( ==  in14x6 in6x14))  ( ==  in14x7 in7x14))  ( ==  in14x8 in8x14))  ( ==  in14x9 in9x14))  ( ==  in14x10 in10x14))  ( ==  in14x11 in11x14))  ( ==  in14x12 in12x14))  ( ==  in14x13 in13x14))  ( ==  in15x0 in0x15))  ( ==  in15x1 in1x15))  ( ==  in15x2 in2x15))  ( ==  in15x3 in3x15))  ( ==  in15x4 in4x15))  ( ==  in15x5 in5x15))  ( ==  in15x6 in6x15))  ( ==  in15x7 in7x15))  ( ==  in15x8 in8x15))  ( ==  in15x9 in9x15))  ( ==  in15x10 in10x15))  ( ==  in15x11 in11x15))  ( ==  in15x12 in12x15))  ( ==  in15x13 in13x15))  ( ==  in15x14 in14x15))  ( ==  in16x0 in0x16))  ( ==  in16x1 in1x16))  ( ==  in16x2 in2x16))  ( ==  in16x3 in3x16))  ( ==  in16x4 in4x16))  ( ==  in16x5 in5x16))  ( ==  in16x6 in6x16))  ( ==  in16x7 in7x16))  ( ==  in16x8 in8x16))  ( ==  in16x9 in9x16))  ( ==  in16x10 in10x16))  ( ==  in16x11 in11x16))  ( ==  in16x12 in12x16))  ( ==  in16x13 in13x16))  ( ==  in16x14 in14x16))  ( ==  in16x15 in15x16))  ( ==  in17x0 in0x17))  ( ==  in17x1 in1x17))  ( ==  in17x2 in2x17))  ( ==  in17x3 in3x17))  ( ==  in17x4 in4x17))  ( ==  in17x5 in5x17))  ( ==  in17x6 in6x17))  ( ==  in17x7 in7x17))  ( ==  in17x8 in8x17))  ( ==  in17x9 in9x17))  ( ==  in17x10 in10x17))  ( ==  in17x11 in11x17))  ( ==  in17x12 in12x17))  ( ==  in17x13 in13x17))  ( ==  in17x14 in14x17))  ( ==  in17x15 in15x17))  ( ==  in17x16 in16x17))  ( ==  in18x0 in0x18))  ( ==  in18x1 in1x18))  ( ==  in18x2 in2x18))  ( ==  in18x3 in3x18))  ( ==  in18x4 in4x18))  ( ==  in18x5 in5x18))  ( ==  in18x6 in6x18))  ( ==  in18x7 in7x18))  ( ==  in18x8 in8x18))  ( ==  in18x9 in9x18))  ( ==  in18x10 in10x18))  ( ==  in18x11 in11x18))  ( ==  in18x12 in12x18))  ( ==  in18x13 in13x18))  ( ==  in18x14 in14x18))  ( ==  in18x15 in15x18))  ( ==  in18x16 in16x18))  ( ==  in18x17 in17x18))  ( ==  in19x0 in0x19))  ( ==  in19x1 in1x19))  ( ==  in19x2 in2x19))  ( ==  in19x3 in3x19))  ( ==  in19x4 in4x19))  ( ==  in19x5 in5x19))  ( ==  in19x6 in6x19))  ( ==  in19x7 in7x19))  ( ==  in19x8 in8x19))  ( ==  in19x9 in9x19))  ( ==  in19x10 in10x19))  ( ==  in19x11 in11x19))  ( ==  in19x12 in12x19))  ( ==  in19x13 in13x19))  ( ==  in19x14 in14x19))  ( ==  in19x15 in15x19))  ( ==  in19x16 in16x19))  ( ==  in19x17 in17x19))  ( ==  in19x18 in18x19))  ( ==  in20x0 in0x20))  ( ==  in20x1 in1x20))  ( ==  in20x2 in2x20))  ( ==  in20x3 in3x20))  ( ==  in20x4 in4x20))  ( ==  in20x5 in5x20))  ( ==  in20x6 in6x20))  ( ==  in20x7 in7x20))  ( ==  in20x8 in8x20))  ( ==  in20x9 in9x20))  ( ==  in20x10 in10x20))  ( ==  in20x11 in11x20))  ( ==  in20x12 in12x20))  ( ==  in20x13 in13x20))  ( ==  in20x14 in14x20))  ( ==  in20x15 in15x20))  ( ==  in20x16 in16x20))  ( ==  in20x17 in17x20))  ( ==  in20x18 in18x20))  ( ==  in20x19 in19x20))  ( ==  in21x0 in0x21))  ( ==  in21x1 in1x21))  ( ==  in21x2 in2x21))  ( ==  in21x3 in3x21))  ( ==  in21x4 in4x21))  ( ==  in21x5 in5x21))  ( ==  in21x6 in6x21))  ( ==  in21x7 in7x21))  ( ==  in21x8 in8x21))  ( ==  in21x9 in9x21))  ( ==  in21x10 in10x21))  ( ==  in21x11 in11x21))  ( ==  in21x12 in12x21))  ( ==  in21x13 in13x21))  ( ==  in21x14 in14x21))  ( ==  in21x15 in15x21))  ( ==  in21x16 in16x21))  ( ==  in21x17 in17x21))  ( ==  in21x18 in18x21))  ( ==  in21x19 in19x21))  ( ==  in21x20 in20x21))  ( ==  in22x0 in0x22))  ( ==  in22x1 in1x22))  ( ==  in22x2 in2x22))  ( ==  in22x3 in3x22))  ( ==  in22x4 in4x22))  ( ==  in22x5 in5x22))  ( ==  in22x6 in6x22))  ( ==  in22x7 in7x22))  ( ==  in22x8 in8x22))  ( ==  in22x9 in9x22))  ( ==  in22x10 in10x22))  ( ==  in22x11 in11x22))  ( ==  in22x12 in12x22))  ( ==  in22x13 in13x22))  ( ==  in22x14 in14x22))  ( ==  in22x15 in15x22))  ( ==  in22x16 in16x22))  ( ==  in22x17 in17x22))  ( ==  in22x18 in18x22))  ( ==  in22x19 in19x22))  ( ==  in22x20 in20x22))  ( ==  in22x21 in21x22))  ( ==  in23x0 in0x23))  ( ==  in23x1 in1x23))  ( ==  in23x2 in2x23))  ( ==  in23x3 in3x23))  ( ==  in23x4 in4x23))  ( ==  in23x5 in5x23))  ( ==  in23x6 in6x23))  ( ==  in23x7 in7x23))  ( ==  in23x8 in8x23))  ( ==  in23x9 in9x23))  ( ==  in23x10 in10x23))  ( ==  in23x11 in11x23))  ( ==  in23x12 in12x23))  ( ==  in23x13 in13x23))  ( ==  in23x14 in14x23))  ( ==  in23x15 in15x23))  ( ==  in23x16 in16x23))  ( ==  in23x17 in17x23))  ( ==  in23x18 in18x23))  ( ==  in23x19 in19x23))  ( ==  in23x20 in20x23))  ( ==  in23x21 in21x23))  ( ==  in23x22 in22x23))  ( ==  in24x0 in0x24))  ( ==  in24x1 in1x24))  ( ==  in24x2 in2x24))  ( ==  in24x3 in3x24))  ( ==  in24x4 in4x24))  ( ==  in24x5 in5x24))  ( ==  in24x6 in6x24))  ( ==  in24x7 in7x24))  ( ==  in24x8 in8x24))  ( ==  in24x9 in9x24))  ( ==  in24x10 in10x24))  ( ==  in24x11 in11x24))  ( ==  in24x12 in12x24))  ( ==  in24x13 in13x24))  ( ==  in24x14 in14x24))  ( ==  in24x15 in15x24))  ( ==  in24x16 in16x24))  ( ==  in24x17 in17x24))  ( ==  in24x18 in18x24))  ( ==  in24x19 in19x24))  ( ==  in24x20 in20x24))  ( ==  in24x21 in21x24))  ( ==  in24x22 in22x24))  ( ==  in24x23 in23x24))  ( ==  in25x0 in0x25))  ( ==  in25x1 in1x25))  ( ==  in25x2 in2x25))  ( ==  in25x3 in3x25))  ( ==  in25x4 in4x25))  ( ==  in25x5 in5x25))  ( ==  in25x6 in6x25))  ( ==  in25x7 in7x25))  ( ==  in25x8 in8x25))  ( ==  in25x9 in9x25))  ( ==  in25x10 in10x25))  ( ==  in25x11 in11x25))  ( ==  in25x12 in12x25))  ( ==  in25x13 in13x25))  ( ==  in25x14 in14x25))  ( ==  in25x15 in15x25))  ( ==  in25x16 in16x25))  ( ==  in25x17 in17x25))  ( ==  in25x18 in18x25))  ( ==  in25x19 in19x25))  ( ==  in25x20 in20x25))  ( ==  in25x21 in21x25))  ( ==  in25x22 in22x25))  ( ==  in25x23 in23x25))  ( ==  in25x24 in24x25))  ( ==  in26x0 in0x26))  ( ==  in26x1 in1x26))  ( ==  in26x2 in2x26))  ( ==  in26x3 in3x26))  ( ==  in26x4 in4x26))  ( ==  in26x5 in5x26))  ( ==  in26x6 in6x26))  ( ==  in26x7 in7x26))  ( ==  in26x8 in8x26))  ( ==  in26x9 in9x26))  ( ==  in26x10 in10x26))  ( ==  in26x11 in11x26))  ( ==  in26x12 in12x26))  ( ==  in26x13 in13x26))  ( ==  in26x14 in14x26))  ( ==  in26x15 in15x26))  ( ==  in26x16 in16x26))  ( ==  in26x17 in17x26))  ( ==  in26x18 in18x26))  ( ==  in26x19 in19x26))  ( ==  in26x20 in20x26))  ( ==  in26x21 in21x26))  ( ==  in26x22 in22x26))  ( ==  in26x23 in23x26))  ( ==  in26x24 in24x26))  ( ==  in26x25 in25x26)))

(check-sat)
(get-model)